100
32
7
9
30
6
19
14
5
26
26
9
7
1
3
17
1
3
1
17
6
5
1
4
2
18
1
1
1
2
1
1
1
20
1
1
21
1
2
1
1
3
1
16
1
1
2
8
4
5
17
3
5
1
4
17
1
1
2
2
2
1
2
1
3
3
10
1
4
17
2
2
1
1
2
1
1
17
2
1
2
1
2
1
1
1
1
2
1
21
2
1
2
1
2
3
1
1
1
2
1
1